proyfinal/src/viki/013/experimentInOfficeAgust.take6.output/f7d7f72c-c25d-40bf-971d-a410f9f96043.als.dat
{'cnf.clauses': '118081',
 'cnf.totvars': '69608',
 'conflict literals': '607',
 'conflicts': '110',
 'decisions': '10016',
 'memused.mb': '15.05',
 'outcome': 'UNSAT',
 'propagations': '144745',
 'restarts': '2',
 'solver.msecs': 35,
 'task.msecs': 85}
