proyfinal/src/viki/013/experimentInOfficeAgust.take6.output/f7d7f72c-c25d-40bf-971d-a410f9f96043.als.out
Reading from standard input... Use '--help' for help.
============================[ Problem Statistics ]=============================
|                                                                             |
|  Number of variables:         69608                                         |
|  Number of clauses:          118081                                         |
|  Parse time:                   0.02 s                                       |
|                                                                             |
============================[ Search Statistics ]==============================
| Conflicts |          ORIGINAL         |          LEARNT          | Progress |
|           |    Vars  Clauses Literals |    Limit  Clauses Lit/Cl |          |
===============================================================================
|       100 |   54456    78618   194940 |    28826       94      6 | 21.768 % |
===============================================================================
restarts              : 2
conflicts             : 110            (3062 /sec)
decisions             : 10016          (0.00 % random) (278850 /sec)
propagations          : 144745         (4029761 /sec)
conflict literals     : 607            (8.45 % deleted)
Memory used           : 15.05 MB
CPU time              : 0.035919 s

UNSATISFIABLE
